p edge 56 439
e 1 18
e 1 20
e 1 21
e 1 22
e 1 26
e 1 29
e 1 31
e 1 33
e 1 36
e 1 38
e 1 41
e 1 42
e 1 43
e 1 45
e 1 53
e 1 55
e 2 3
e 2 9
e 2 11
e 2 12
e 2 13
e 2 14
e 2 15
e 2 16
e 2 20
e 2 25
e 2 27
e 2 30
e 2 35
e 2 39
e 2 50
e 2 56
e 3 4
e 3 5
e 3 6
e 3 7
e 3 12
e 3 19
e 3 29
e 3 31
e 3 32
e 3 38
e 3 40
e 3 44
e 3 45
e 3 48
e 3 49
e 3 50
e 4 5
e 4 6
e 4 7
e 4 12
e 4 13
e 4 16
e 4 19
e 4 24
e 4 39
e 4 40
e 4 41
e 4 42
e 5 12
e 5 13
e 5 15
e 5 22
e 5 24
e 5 25
e 5 31
e 5 32
e 5 36
e 5 40
e 5 41
e 5 43
e 5 46
e 5 49
e 5 54
e 5 55
e 6 7
e 6 13
e 6 15
e 6 18
e 6 21
e 6 22
e 6 29
e 6 31
e 6 32
e 6 33
e 6 34
e 6 35
e 6 41
e 6 47
e 7 12
e 7 13
e 7 15
e 7 16
e 7 17
e 7 18
e 7 19
e 7 21
e 7 29
e 7 34
e 7 36
e 7 38
e 7 40
e 7 42
e 7 44
e 7 52
e 7 54
e 8 10
e 8 13
e 8 15
e 8 16
e 8 19
e 8 21
e 8 22
e 8 23
e 8 25
e 8 29
e 8 32
e 8 33
e 8 47
e 8 51
e 9 10
e 9 18
e 9 20
e 9 21
e 9 25
e 9 36
e 9 41
e 9 42
e 9 49
e 9 55
e 10 11
e 10 17
e 10 20
e 10 21
e 10 23
e 10 25
e 10 28
e 10 31
e 10 37
e 10 43
e 10 45
e 10 48
e 10 52
e 11 12
e 11 16
e 11 18
e 11 19
e 11 22
e 11 25
e 11 29
e 11 32
e 11 41
e 11 46
e 11 52
e 12 14
e 12 17
e 12 18
e 12 19
e 12 21
e 12 23
e 12 24
e 12 28
e 12 30
e 12 36
e 12 37
e 12 42
e 12 47
e 12 55
e 13 14
e 13 15
e 13 17
e 13 24
e 13 32
e 13 33
e 13 36
e 13 39
e 13 42
e 13 44
e 13 46
e 13 50
e 14 20
e 14 22
e 14 28
e 14 32
e 14 35
e 14 40
e 14 44
e 14 47
e 14 50
e 15 18
e 15 30
e 15 34
e 15 36
e 15 37
e 15 39
e 15 43
e 15 48
e 16 19
e 16 21
e 16 26
e 16 29
e 16 30
e 16 31
e 16 35
e 16 36
e 16 37
e 16 41
e 16 42
e 16 43
e 16 44
e 16 45
e 16 46
e 16 49
e 16 53
e 16 54
e 17 18
e 17 29
e 17 37
e 17 43
e 17 44
e 17 45
e 17 50
e 17 51
e 17 53
e 18 21
e 18 23
e 18 33
e 18 35
e 18 36
e 18 41
e 18 46
e 18 47
e 18 48
e 19 25
e 19 28
e 19 36
e 19 39
e 19 40
e 19 42
e 19 46
e 19 47
e 20 24
e 20 27
e 20 28
e 20 30
e 20 34
e 20 37
e 20 40
e 20 46
e 20 47
e 20 49
e 20 51
e 20 52
e 20 53
e 20 55
e 21 22
e 21 25
e 21 26
e 21 30
e 21 31
e 21 33
e 21 34
e 21 35
e 21 36
e 21 38
e 21 41
e 21 46
e 21 47
e 21 52
e 21 55
e 22 31
e 22 42
e 22 47
e 22 51
e 22 52
e 22 54
e 22 55
e 23 30
e 23 33
e 23 34
e 23 37
e 23 42
e 23 44
e 23 45
e 23 48
e 23 49
e 23 52
e 23 55
e 24 28
e 24 30
e 24 33
e 24 39
e 24 43
e 24 44
e 24 45
e 24 47
e 24 48
e 24 53
e 24 56
e 25 37
e 25 38
e 25 40
e 25 44
e 25 45
e 25 48
e 25 50
e 25 51
e 25 52
e 25 54
e 26 29
e 26 34
e 26 36
e 26 37
e 26 38
e 26 43
e 26 44
e 26 46
e 26 47
e 26 49
e 26 50
e 26 51
e 26 53
e 26 55
e 26 56
e 27 31
e 27 32
e 27 36
e 27 37
e 27 51
e 27 55
e 28 30
e 28 32
e 28 36
e 28 39
e 28 42
e 28 44
e 28 52
e 28 55
e 29 41
e 29 47
e 29 48
e 29 51
e 30 33
e 30 34
e 30 39
e 30 42
e 30 43
e 30 44
e 30 48
e 30 53
e 30 56
e 31 33
e 31 36
e 31 42
e 31 43
e 31 46
e 32 37
e 32 40
e 32 45
e 32 47
e 32 48
e 32 49
e 32 53
e 32 54
e 33 34
e 33 42
e 33 44
e 33 50
e 33 53
e 34 42
e 34 48
e 34 49
e 34 52
e 35 36
e 35 39
e 35 41
e 35 46
e 36 39
e 36 43
e 36 45
e 36 48
e 36 55
e 36 56
e 37 39
e 37 46
e 37 56
e 38 40
e 38 41
e 38 42
e 38 46
e 38 52
e 38 53
e 38 56
e 39 44
e 39 47
e 39 54
e 40 41
e 40 44
e 40 46
e 40 53
e 40 56
e 41 44
e 41 46
e 41 47
e 41 54
e 42 43
e 42 44
e 42 46
e 42 53
e 42 56
e 43 44
e 43 47
e 43 48
e 43 49
e 43 55
e 43 56
e 45 49
e 45 50
e 45 54
e 45 55
e 46 50
e 46 54
e 46 55
e 46 56
e 47 50
e 47 53
e 48 50
e 48 52
e 48 53
e 48 55
e 49 54
e 49 55
e 49 56
e 50 55
e 51 56
e 53 54
e 54 55
e 55 56
